decision_x1=[0,99];
decision_x2=[0,99];
decision_x3=[0,99];
decision_x4=[0,99];
decision_x5=[0,99];
decision_x6=[0,99];
decision_x7=[0,99];
decision_x8=[0,99];
decision_x9=[0,99];
decision_x10=[0,99];
random_y1=[0,99];
random_y2=[0,99];
random_y3=[0,99];
random_y4=[0,99];
random_y5=[0,99];
random_y6=[0,99];
random_y7=[0,99];
random_y8=[0,99];
random_y9=[0,99];
random_y10=[0,99];
function(x3,x1)=1.40323x3^2 5.28191x3 -6.92924x1^2 2.53483x1 4.01288x3x1 -5.72614;
function(x3,x2)=-7.37973x3^2 3.19959x3 -9.56946x2^2 -7.23361x2 -9.32556x3x2 -3.72144;
function(x6,x2)=8.56258x6^2 8.03185x6 -7.10025x2^2 2.46063x2 1.651x6x2 2.6458;
function(x7,x4)=-5.75599x7^2 -8.35527x7 4.23163x4^2 3.15308x4 -6.24757x7x4 -9.41373;
function(x8,x3)=-3.14496x8^2 4.45528x8 9.6857x3^2 6.36301x3 9.40357x8x3 -2.4106;
function(x8,x4)=-2.82539x8^2 -7.32183x8 -5.80717x4^2 -1.72215x4 -1.65963x8x4 -2.76641;
function(x9,x4)=-7.78263x9^2 2.87331x9 7.32187x4^2 4.1963x4 -7.92246x9x4 1.6724;
function(x10,x5)=-5.78407x10^2 -3.28192x10 6.60227x5^2 -7.10685x5 5.73044x10x5 7.48785;
function(x10,x9)=5.19636x10^2 -5.39977x10 -8.17915x9^2 -7.4316x9 -4.39562x10x9 -1.75504;
function(x1,y1)=-2.6889x1^2 -9.52859x1 -9.49385y1^2 -9.06119y1 -7.40819x1y1 -5.73037;
function(x2,y2)=-8.7883x2^2 -4.50606x2 1.45758y2^2 9.03609y2 -8.20231x2y2 2.04291;
function(x3,y3)=-9.56414x3^2 -1.83634x3 -2.56595y3^2 7.80347y3 -5.1344x3y3 -1.92506;
function(x4,y4)=-4.00327x4^2 -7.31226x4 4.07162y4^2 -2.9476y4 6.05959x4y4 7.48254;
function(x5,y5)=-6.83707x5^2 -8.17862x5 6.72139y5^2 1.01711y5 -5.6775x5y5 6.53532;
function(x6,y6)=-7.58194x6^2 -3.95668x6 -1.11107y6^2 6.2977y6 -8.0579x6y6 -4.22914;
function(x7,y7)=1.20553x7^2 -9.5744x7 5.88095y7^2 -4.37562y7 -9.60184x7y7 -1.62664;
function(x8,y8)=-6.88819x8^2 -7.64822x8 -2.95458y8^2 4.1136y8 -6.96645x8y8 -9.99784;
function(x9,y9)=5.67272x9^2 -2.13558x9 -7.08605y9^2 5.76779y9 -2.66902x9y9 7.3556;
function(x10,y10)=-3.03597x10^2 -5.92402x10 -9.80052y10^2 -6.08843y10 6.17576x10y10 -1.92105;
neighbor_set_x1=x3 ;
neighbor_set_x10=x5 x9 ;
neighbor_set_x2=x3 x6 ;
neighbor_set_x3=x1 x2 x8 ;
neighbor_set_x4=x7 x8 x9 ;
neighbor_set_x5=x10 ;
neighbor_set_x6=x2 ;
neighbor_set_x7=x4 ;
neighbor_set_x8=x3 x4 ;
neighbor_set_x9=x10 x4 ;
initial_distribution_y1=[alpha:6.98402,beta:5.83057];
initial_distribution_y2=[alpha:8.39238,beta:5.67315];
initial_distribution_y3=[alpha:9.45807,beta:6.804];
initial_distribution_y4=[alpha:7.25114,beta:8.68898];
initial_distribution_y5=[alpha:9.39427,beta:7.24057];
initial_distribution_y6=[alpha:6.01969,beta:9.11364];
initial_distribution_y7=[alpha:6.29099,beta:6.33718];
initial_distribution_y8=[alpha:8.84244,beta:8.02978];
initial_distribution_y9=[alpha:8.25847,beta:5.33986];
initial_distribution_y10=[alpha:6.83342,beta:5.6852];
transition_y1=[alpha:9.18665];
transition_y2=[alpha:9.39798];
transition_y3=[alpha:8.7282];
transition_y4=[alpha:9.78698];
transition_y5=[alpha:8.62747];
transition_y6=[alpha:7.70303];
transition_y7=[alpha:8.4383];
transition_y8=[alpha:9.70763];
transition_y9=[alpha:5.98583];
transition_y10=[alpha:5.64335];
